50
    1   631   580
    2   467   461
    3   220   191
    4     1    28
    5   215   161
    6   229   258
    7   502   546
    8   499   452
    9   306   362
   10   404   363
   11   443   384
   12   200   236
   13   202   233
   14   539   541
   15   397   337
   16   638   597
   17   499   442
   18   200   201
   19   176   142
   20   295   319
   21   397   442
   22   387   408
   23   621   593
   24   455   495
   25   419   441
   26    68   113
   27   420   391
   28   466   480
   29   309   266
   30   596   536
   31   225   270
   32   565   548
   33   153   184
   34   142   134
   35   325   321
   36   321   290
   37   530   585
   38   107    77
   39   347   385
   40   234   287
   41    77   100
   42   338   394
   43   451   411
   44   268   214
   45    86   100
   46   111   123
   47   234   254
   48   459   402
   49   290   316
   50    23     1
601
